\ Model pbUFLPnldep_5_5_grb.lp
\ LP format - for model browsing. Use MPS format to capture full model detail.
Minimize
  __pwl(w(1)) + __pwl(w(2)) + __pwl(w(3)) + __pwl(w(4)) + __pwl(w(5))
   + 260 x(1,1) + 239 x(1,2) + 418 x(1,3) + 557 x(1,4) + 346 x(1,5)
   + 161 x(2,1) + 288 x(2,2) + 568 x(2,3) + 379 x(2,4) + 392 x(2,5)
   + 672 x(3,1) + 268 x(3,2) + 122 x(3,3) + 295 x(3,4) + 344 x(3,5)
   + 143 x(4,1) + 393 x(4,2) + 29 x(4,3) + 656 x(4,4) + 654 x(4,5)
   + 235 x(5,1) + 329 x(5,2) + 640 x(5,3) + 517 x(5,4) + 329 x(5,5)
Subject To
 R0: x(1,1) + x(2,1) + x(3,1) + x(4,1) + x(5,1) = 1
 R1: - y(1) + x(1,1) <= 0
 R2: - y(2) + x(2,1) <= 0
 R3: - y(3) + x(3,1) <= 0
 R4: - y(4) + x(4,1) <= 0
 R5: - y(5) + x(5,1) <= 0
 R6: x(1,2) + x(2,2) + x(3,2) + x(4,2) + x(5,2) = 1
 R7: - y(1) + x(1,2) <= 0
 R8: - y(2) + x(2,2) <= 0
 R9: - y(3) + x(3,2) <= 0
 R10: - y(4) + x(4,2) <= 0
 R11: - y(5) + x(5,2) <= 0
 R12: x(1,3) + x(2,3) + x(3,3) + x(4,3) + x(5,3) = 1
 R13: - y(1) + x(1,3) <= 0
 R14: - y(2) + x(2,3) <= 0
 R15: - y(3) + x(3,3) <= 0
 R16: - y(4) + x(4,3) <= 0
 R17: - y(5) + x(5,3) <= 0
 R18: x(1,4) + x(2,4) + x(3,4) + x(4,4) + x(5,4) = 1
 R19: - y(1) + x(1,4) <= 0
 R20: - y(2) + x(2,4) <= 0
 R21: - y(3) + x(3,4) <= 0
 R22: - y(4) + x(4,4) <= 0
 R23: - y(5) + x(5,4) <= 0
 R24: x(1,5) + x(2,5) + x(3,5) + x(4,5) + x(5,5) = 1
 R25: - y(1) + x(1,5) <= 0
 R26: - y(2) + x(2,5) <= 0
 R27: - y(3) + x(3,5) <= 0
 R28: - y(4) + x(4,5) <= 0
 R29: - y(5) + x(5,5) <= 0
 R30: w(1) - 49 x(1,1) - 29 x(1,2) - 23 x(1,3) - 40 x(1,4) - 18 x(1,5) = 0
 R31: w(2) - 49 x(2,1) - 29 x(2,2) - 23 x(2,3) - 40 x(2,4) - 18 x(2,5) = 0
 R32: w(3) - 49 x(3,1) - 29 x(3,2) - 23 x(3,3) - 40 x(3,4) - 18 x(3,5) = 0
 R33: w(4) - 49 x(4,1) - 29 x(4,2) - 23 x(4,3) - 40 x(4,4) - 18 x(4,5) = 0
 R34: w(5) - 49 x(5,1) - 29 x(5,2) - 23 x(5,3) - 40 x(5,4) - 18 x(5,5) = 0
Bounds
 y(1) free
 y(2) free
 y(3) free
 y(4) free
 y(5) free
Binaries
 y(1) y(2) y(3) y(4) y(5)
PWLObj
 w(1): (0, 0) (0, 0) (0, 4.92049e-07) (0.000159, 4.92049e-07) 
  (0.000159, 0.3659999827291346) (0.0308375430632741, 5.097091240505552) 
  (0.0308375430632741, 5.097091240167362) 
  (5.982218067840726, 70.9926917799107) 
  (5.982218067840726, 70.99269177976214) 
  (49.51174901634114, 204.2380509462113) 
  (49.51174901634114, 204.2380509461828) (159, 320.7343978201035)
 w(2): (0, 0) (0, 0) (0, 4.2214e-07) (0.000159, 4.2214e-07) 
  (0.000159, 0.3139999851829188) (0.0308375430632741, 4.37291434294739) 
  (0.0308375430632741, 4.372914342657248) 
  (5.982218067840733, 60.90629841227315) 
  (5.982218067840733, 60.90629841214568) 
  (49.51174901634108, 175.2206229429243) 
  (49.51174901634108, 175.2206229428999) 
  (100.8832401139093, 250.1154946084186) 
  (100.8832401139093, 250.1154946084185) (159, 309.4730208964999)
 w(3): (0, 0) (0, 0) (0, 6.77575e-07) (0.000159, 6.77575e-07) 
  (0.000159, 0.5039999762171689) (0.0308375430632741, 7.01894531479453) 
  (0.0308375430632741, 7.018945314328826) 
  (5.982218067840725, 97.76042802479505) 
  (5.982218067840725, 97.76042802459045) 
  (49.51174901634101, 281.2458406472414) 
  (49.51174901634101, 281.2458406472022) (159, 441.6670396211262)
 w(4): (0, 0) (0, 0) (0, 6.77575e-07) (0.000159, 6.77575e-07) 
  (0.000159, 0.5039999762171689) (0.0308375430632741, 7.01894531479453) 
  (0.0308375430632741, 7.018945314328826) 
  (5.982218067840725, 97.76042802479505) 
  (5.982218067840725, 97.76042802459045) 
  (9.879099592252409, 125.6292178997311) 
  (9.879099592252409, 125.6292178997308) 
  (16.31447320092945, 161.4427332821778) 
  (16.31447320092945, 161.4427332821321) 
  (25.56917164871025, 201.5208670041586) 
  (25.56917164871025, 202.1111641553202) 
  (49.51174901634101, 263.6680037313358) 
  (49.51174901634101, 281.2458406472022) (159, 441.6670396211262)
 w(5): (0, 0) (0, 0) (0, 7.79749e-07) (0.000159, 7.79749e-07) 
  (0.000159, 0.5799999726308689) (0.0308375430632741, 8.077357703533385) 
  (0.0308375430632741, 8.077357702997457) 
  (5.982218067840719, 112.5020798698038) 
  (5.982218067840719, 112.5020798695683) (159, 305.2691885191624)
End
